\ LP format - for model browsing. Use MPS format to capture full model detail.
Minimize
  - 6.937801 x1 - 4.62543 x2 + 4911.96 Constant
Subject To
 c1: x1 + 0.66666666666667 x2 <= 708
 c2: 0.1 x1 + 0.25 x2 <= 135
Bounds
 Constant = 1
End
